Gurobi Optimizer version 9.1.2 build v9.1.2rc0 (linux64)
Thread count: 36 physical cores, 72 logical processors, using up to 32 threads
Optimize a model with 12 rows, 57 columns and 590 nonzeros
Model fingerprint: 0xf32eec78
Model has 47 quadratic constraints
Coefficient statistics:
  Matrix range     [2e-05, 3e+00]
  QMatrix range    [1e+00, 1e+00]
  QLMatrix range   [1e+00, 1e+00]
  Objective range  [8e-03, 7e-01]
  Bounds range     [1e+00, 1e+00]
  RHS range        [1e+00, 1e+00]
Presolve removed 9 rows and 0 columns

Continuous model is non-convex -- solving as a MIP.

Presolve removed 9 rows and 0 columns
Presolve time: 0.00s
Presolved: 189 rows, 57 columns, 443 nonzeros
Presolved model has 47 bilinear constraint(s)
Variable types: 57 continuous, 0 integer (0 binary)

Root relaxation: objective -1.743721e+00, 44 iterations, 0.00 seconds

    Nodes    |    Current Node    |     Objective Bounds      |     Work
 Expl Unexpl |  Obj  Depth IntInf | Incumbent    BestBd   Gap | It/Node Time

     0     0   -1.74372    0   38          -   -1.74372      -     -    0s
H    0     0                       0.6147548   -1.74372   384%     -    0s
     0     0   -1.64739    0    1    0.61475   -1.64739   368%     -    0s
H    0     0                      -1.6450460   -1.64739  0.14%     -    0s
     0     0     cutoff    0        -1.64505   -1.64505  0.00%     -    0s

Cutting planes:
  RLT: 25
  BQP: 3

Explored 1 nodes (76 simplex iterations) in 0.03 seconds
Thread count was 32 (of 72 available processors)

Solution count 2: -1.64505 0.614755 
No other solutions better than -1.64505

Optimal solution found (tolerance 1.00e-04)
Best objective -1.645045978473e+00, best bound -1.645045978473e+00, gap 0.0000%

User-callback calls 84, time in user-callback 0.00 sec
Gurobi Optimizer version 9.1.2 build v9.1.2rc0 (linux64)
Thread count: 36 physical cores, 72 logical processors, using up to 32 threads
Optimize a model with 24 rows, 120 columns and 2480 nonzeros
Model fingerprint: 0xcad13d7e
Model has 100 quadratic constraints
Coefficient statistics:
  Matrix range     [8e-06, 4e+00]
  QMatrix range    [1e+00, 1e+00]
  QLMatrix range   [1e+00, 1e+00]
  Objective range  [5e-03, 1e+00]
  Bounds range     [1e+00, 1e+00]
  RHS range        [1e+00, 1e+00]
Presolve removed 17 rows and 0 columns

Continuous model is non-convex -- solving as a MIP.

Presolve removed 17 rows and 0 columns
Presolve time: 0.00s
Presolved: 407 rows, 120 columns, 1231 nonzeros
Presolved model has 100 bilinear constraint(s)
Variable types: 120 continuous, 0 integer (0 binary)

Root relaxation: objective -7.878543e+00, 152 iterations, 0.00 seconds

    Nodes    |    Current Node    |     Objective Bounds      |     Work
 Expl Unexpl |  Obj  Depth IntInf | Incumbent    BestBd   Gap | It/Node Time

     0     0   -7.87854    0   93          -   -7.87854      -     -    0s
H    0     0                       1.9168332   -7.87854   511%     -    0s
     0     0   -5.68325    0  100    1.91683   -5.68325   396%     -    0s
H    0     0                      -0.4482110   -5.68325  1168%     -    0s
     0     0   -5.02528    0  100   -0.44821   -5.02528  1021%     -    0s
     0     0   -4.94853    0  100   -0.44821   -4.94853  1004%     -    0s
     0     0   -4.75336    0   90   -0.44821   -4.75336   961%     -    0s
H    0     0                      -0.6032724   -4.75336   688%     -    0s
     0     0   -4.74312    0  100   -0.60327   -4.74312   686%     -    0s
     0     0   -4.69132    0  100   -0.60327   -4.69132   678%     -    0s
H    0     0                      -0.8831850   -4.69132   431%     -    0s
     0     0   -4.67738    0  100   -0.88318   -4.67738   430%     -    0s
     0     0   -4.66627    0  100   -0.88318   -4.66627   428%     -    0s
H    0     0                      -0.8853732   -4.66627   427%     -    0s
     0     0   -4.66618    0  100   -0.88537   -4.66618   427%     -    0s
     0     0   -4.66264    0  100   -0.88537   -4.66264   427%     -    0s
     0     0   -4.66224    0  100   -0.88537   -4.66224   427%     -    0s
     0     0   -4.66126    0  100   -0.88537   -4.66126   426%     -    0s
H    0     0                      -3.4130891   -4.66126  36.6%     -    0s
H    0     0                      -3.6322906   -4.66126  28.3%     -    0s
H    0     0                      -3.6337195   -4.66126  28.3%     -    0s
     0     2   -4.66126    0  100   -3.63372   -4.66126  28.3%     -    0s
*  760   302              20      -3.6352547   -4.18113  15.0%  32.7    0s
*  762   302              21      -3.6354957   -4.18113  15.0%  32.6    0s
*  866   430              23      -3.6453987   -4.18113  14.7%  30.5    0s
* 1069   526              26      -3.7152305   -4.13601  11.3%  27.3    0s
* 1070   526              26      -3.7152310   -4.13601  11.3%  27.3    0s
* 1072   526              26      -3.7152358   -4.13601  11.3%  27.2    0s
* 1444   587              35      -3.7637675   -4.13601  9.89%  23.6    0s
* 1596   697              26      -3.8238720   -4.04587  5.81%  22.6    0s
* 1715   697              26      -3.8238767   -4.04587  5.81%  21.7    0s
* 1887   814              24      -3.8543007   -3.93727  2.15%  20.6    0s
* 1888   814              24      -3.8543033   -3.93727  2.15%  20.6    0s
* 1913   814              27      -3.8543829   -3.93727  2.15%  20.5    0s
* 2297   506              26      -3.8544128   -3.85963  0.14%  18.1    0s
* 2349   506              24      -3.8548616   -3.85674  0.05%  17.8    0s
* 2357   506              24      -3.8550680   -3.85674  0.04%  17.7    0s
* 2744    28              24      -3.8550682   -3.85520  0.00%  15.4    0s
* 2760    28              26      -3.8550767   -3.85516  0.00%  15.4    0s

Cutting planes:
  RLT: 70
  BQP: 7
  PSD: 4

Explored 3185 nodes (42913 simplex iterations) in 0.69 seconds
Thread count was 32 (of 72 available processors)

Solution count 10: -3.85508 -3.85507 -3.85507 ... -3.82387

Optimal solution found (tolerance 1.00e-04)
Best objective -3.855076666790e+00, best bound -3.855136780582e+00, gap 0.0016%

User-callback calls 6658, time in user-callback 0.00 sec



objective value: -3.855076666789869
objective bound: -3.855136780582483
x_opt: [0.0, 1.0, 1.0, 0.0, 1.0, 0.27300475945099406, 0.08076881046112638, 0.0, 1.0, 0.2750461882930584, 0.0, 0.0, 0.0, 1.0, 0.0, 0.8772403307515588, 1.0, 0.9857836866259413, 0.0, 1.0]
GUROBI solution time: 0.6872282028198242




